outputs/case_346.model.txt
internal_handling_established = True
report_submitted_on_time = True
report_truthful = True
violate_148_2_2_report_issue = False
violate_148_2_1_doc_issue = False
violate_148_1_1_or_2 = False
internal_control_executed = True
violate_148_3_2_internal_handling = False
violate_148_1_1_or_2_flag = False
penalty = False
internal_handling_executed = True
internal_control_established = True
doc_provided_for_review = True
doc_truthful = True
violate_148_3_1_internal_control = False
report_public_disclosed = True
doc_compliant_record = True